\* Shimming *\
Minimize
Minimize_the_Magnetization: Mz_0_0 + Mz_0_1 + Mz_0_2 + Mz_0_3 + Mz_0_4
 + Mz_1_0 + Mz_1_1 + Mz_1_2 + Mz_1_3 + Mz_1_4 + Mz_2_0 + Mz_2_1 + Mz_2_2
 + Mz_2_3 + Mz_2_4 + Mz_3_0 + Mz_3_1 + Mz_3_2 + Mz_3_3 + Mz_3_4 + Mz_4_0
 + Mz_4_1 + Mz_4_2 + Mz_4_3 + Mz_4_4
Subject To
Ba_1_0: - 48.227042638 Mz_0_0 - 48.227042638 Mz_0_1 - 48.227042638 Mz_0_2
 - 48.227042638 Mz_0_3 - 48.227042638 Mz_0_4 - 73.5147787495 Mz_1_0
 - 73.5147787495 Mz_1_1 - 73.5147787495 Mz_1_2 - 73.5147787495 Mz_1_3
 - 73.5147787495 Mz_1_4 + 2.12235410327e-14 Mz_2_0 + 2.12235410327e-14 Mz_2_1
 + 2.12235410327e-14 Mz_2_2 + 2.12235410327e-14 Mz_2_3
 + 2.12235410327e-14 Mz_2_4 + 73.5147787495 Mz_3_0 + 73.5147787495 Mz_3_1
 + 73.5147787495 Mz_3_2 + 73.5147787495 Mz_3_3 + 73.5147787495 Mz_3_4
 + 48.227042638 Mz_4_0 + 48.227042638 Mz_4_1 + 48.227042638 Mz_4_2
 + 48.227042638 Mz_4_3 + 48.227042638 Mz_4_4 = 0
Ba_1_1: - 67.1764436767 Mz_0_0 - 20.7586627178 Mz_0_1 + 54.3468845561 Mz_0_2
 + 54.3468845561 Mz_0_3 - 20.7586627178 Mz_0_4 + 144.567630071 Mz_1_0
 + 44.6738545286 Mz_1_1 - 116.957669564 Mz_1_2 - 116.957669564 Mz_1_3
 + 44.6738545286 Mz_1_4 + 346.618175978 Mz_2_0 + 107.110906937 Mz_2_1
 - 280.419994926 Mz_2_2 - 280.419994926 Mz_2_3 + 107.110906937 Mz_2_4
 + 144.567630071 Mz_3_0 + 44.6738545286 Mz_3_1 - 116.957669564 Mz_3_2
 - 116.957669564 Mz_3_3 + 44.6738545286 Mz_3_4 - 67.1764436767 Mz_4_0
 - 20.7586627178 Mz_4_1 + 54.3468845561 Mz_4_2 + 54.3468845561 Mz_4_3
 - 20.7586627178 Mz_4_4 = 1
Ba_2_0: 208.749552166 Mz_0_0 + 208.749552166 Mz_0_1 + 208.749552166 Mz_0_2
 + 208.749552166 Mz_0_3 + 208.749552166 Mz_0_4 - 70.2024500108 Mz_1_0
 - 70.2024500108 Mz_1_1 - 70.2024500108 Mz_1_2 - 70.2024500108 Mz_1_3
 - 70.2024500108 Mz_1_4 - 534.904592559 Mz_2_0 - 534.904592559 Mz_2_1
 - 534.904592559 Mz_2_2 - 534.904592559 Mz_2_3 - 534.904592559 Mz_2_4
 - 70.2024500108 Mz_3_0 - 70.2024500108 Mz_3_1 - 70.2024500108 Mz_3_2
 - 70.2024500108 Mz_3_3 - 70.2024500108 Mz_3_4 + 208.749552166 Mz_4_0
 + 208.749552166 Mz_4_1 + 208.749552166 Mz_4_2 + 208.749552166 Mz_4_3
 + 208.749552166 Mz_4_4 = 0
Ba_2_1: - 654.742943525 Mz_0_0 - 202.326696496 Mz_0_1 + 529.698168259 Mz_0_2
 + 529.698168259 Mz_0_3 - 202.326696496 Mz_0_4 - 1905.31620124 Mz_1_0
 - 588.77508584 Mz_1_1 + 1541.43318646 Mz_1_2 + 1541.43318646 Mz_1_3
 - 588.77508584 Mz_1_4 + 6.55047562737e-13 Mz_2_0 + 2.02420829009e-13 Mz_2_1
 - 5.29944610378e-13 Mz_2_2 - 5.29944610378e-13 Mz_2_3
 + 2.02420829009e-13 Mz_2_4 + 1905.31620124 Mz_3_0 + 588.77508584 Mz_3_1
 - 1541.43318646 Mz_3_2 - 1541.43318646 Mz_3_3 + 588.77508584 Mz_3_4
 + 654.742943525 Mz_4_0 + 202.326696496 Mz_4_1 - 529.698168259 Mz_4_2
 - 529.698168259 Mz_4_3 + 202.326696496 Mz_4_4 = 0
Ba_2_2: - 1667.1667184 Mz_0_0 + 1348.76620765 Mz_0_1 - 515.182848443 Mz_0_2
 - 515.182848443 Mz_0_3 + 1348.76620765 Mz_0_4 + 1313.60747828 Mz_1_0
 - 1062.73077387 Mz_1_1 + 405.927034727 Mz_1_2 + 405.927034727 Mz_1_3
 - 1062.73077387 Mz_1_4 + 5349.04592559 Mz_2_0 - 4327.46905749 Mz_2_1
 + 1652.9460947 Mz_2_2 + 1652.9460947 Mz_2_3 - 4327.46905749 Mz_2_4
 + 1313.60747828 Mz_3_0 - 1062.73077387 Mz_3_1 + 405.927034727 Mz_3_2
 + 405.927034727 Mz_3_3 - 1062.73077387 Mz_3_4 - 1667.1667184 Mz_4_0
 + 1348.76620765 Mz_4_1 - 515.182848443 Mz_4_2 - 515.182848443 Mz_4_3
 + 1348.76620765 Mz_4_4 = 0
Bb_1_1: - 63.8885945002 Mz_0_1 - 39.4853228946 Mz_0_2 + 39.4853228946 Mz_0_3
 + 63.8885945002 Mz_0_4 + 137.491986625 Mz_1_1 + 84.9747209148 Mz_1_2
 - 84.9747209148 Mz_1_3 - 137.491986625 Mz_1_4 + 329.65347493 Mz_2_1
 + 203.737052017 Mz_2_2 - 203.737052017 Mz_2_3 - 329.65347493 Mz_2_4
 + 137.491986625 Mz_3_1 + 84.9747209148 Mz_3_2 - 84.9747209148 Mz_3_3
 - 137.491986625 Mz_3_4 - 63.8885945002 Mz_4_1 - 39.4853228946 Mz_4_2
 + 39.4853228946 Mz_4_3 + 63.8885945002 Mz_4_4 = 0
Bb_2_1: - 622.697542938 Mz_0_1 - 384.848246247 Mz_0_2 + 384.848246247 Mz_0_3
 + 622.697542938 Mz_0_4 - 1812.06338879 Mz_1_1 - 1119.91676404 Mz_1_2
 + 1119.91676404 Mz_1_3 + 1812.06338879 Mz_1_4 + 6.22987253024e-13 Mz_2_1
 + 3.85027296927e-13 Mz_2_2 - 3.85027296927e-13 Mz_2_3
 - 6.22987253024e-13 Mz_2_4 + 1812.06338879 Mz_3_1 + 1119.91676404 Mz_3_2
 - 1119.91676404 Mz_3_3 - 1812.06338879 Mz_3_4 + 622.697542938 Mz_4_1
 + 384.848246247 Mz_4_2 - 384.848246247 Mz_4_3 - 622.697542938 Mz_4_4 = 0
Bb_2_2: - 979.936010191 Mz_0_1 + 1585.56977129 Mz_0_2 - 1585.56977129 Mz_0_3
 + 979.936010191 Mz_0_4 + 772.119103036 Mz_1_1 - 1249.31495208 Mz_1_2
 + 1249.31495208 Mz_1_3 - 772.119103036 Mz_1_4 + 3144.0903089 Mz_2_1
 - 5087.24498349 Mz_2_2 + 5087.24498349 Mz_2_3 - 3144.0903089 Mz_2_4
 + 772.119103036 Mz_3_1 - 1249.31495208 Mz_3_2 + 1249.31495208 Mz_3_3
 - 772.119103036 Mz_3_4 - 979.936010191 Mz_4_1 + 1585.56977129 Mz_4_2
 - 1585.56977129 Mz_4_3 + 979.936010191 Mz_4_4 = 0
Bounds
Mz_0_0 <= 0.00396971647708
Mz_0_1 <= 0.00396971647708
Mz_0_2 <= 0.00396971647708
Mz_0_3 <= 0.00396971647708
Mz_0_4 <= 0.00396971647708
Mz_1_0 <= 0.00396971647708
Mz_1_1 <= 0.00396971647708
Mz_1_2 <= 0.00396971647708
Mz_1_3 <= 0.00396971647708
Mz_1_4 <= 0.00396971647708
Mz_2_0 <= 0.00396971647708
Mz_2_1 <= 0.00396971647708
Mz_2_2 <= 0.00396971647708
Mz_2_3 <= 0.00396971647708
Mz_2_4 <= 0.00396971647708
Mz_3_0 <= 0.00396971647708
Mz_3_1 <= 0.00396971647708
Mz_3_2 <= 0.00396971647708
Mz_3_3 <= 0.00396971647708
Mz_3_4 <= 0.00396971647708
Mz_4_0 <= 0.00396971647708
Mz_4_1 <= 0.00396971647708
Mz_4_2 <= 0.00396971647708
Mz_4_3 <= 0.00396971647708
Mz_4_4 <= 0.00396971647708
End
